Minimize
  0.0833333333333333 y_0 + 0.0909090909090909 y_1 + 0.1428571428571428 y_2
   + 0.125 y_3 + 0.0909090909090909 y_4 + 0.2 y_5 + 0.0909090909090909 y_6
   + 0.25 y_7 + 0.125 y_8 + 0.125 y_9 + 0.1111111111111111 y_10
   + 0.125 y_11 + 0.125 y_12 + 0.0909090909090909 y_13
   + 0.0909090909090909 y_14 + 0.0769230769230769 y_15 + 0.1 y_16
   + 0.1428571428571428 y_17 + 0.1 y_18 + 0.0833333333333333 y_19
   + 0.0769230769230769 y_20 + 0.125 y_21 + 0.0769230769230769 y_22
   + 0.0833333333333333 y_23 + 0.1 y_24 + 0.1111111111111111 y_25
   + 0.0909090909090909 y_26 + 0.1 y_27 + 0.0833333333333333 y_28
   + 0.1111111111111111 y_29 + 0.0769230769230769 y_30 + 0.1 y_31
   + 0.1666666666666667 y_32 + 0.2 y_33 + 0.1666666666666667 y_34
   + 0.125 y_35 + 0.0769230769230769 y_36 + 0.1 y_37
   + 0.0833333333333333 y_38 + 0.25 y_39 + 0.1666666666666667 y_40
   + 0.0833333333333333 y_41 + 0.125 y_42 + 0.0769230769230769 y_43
   + 0.1428571428571428 y_44 + 0.1111111111111111 y_45
   + 0.0833333333333333 y_46 + 0.0769230769230769 y_47
   + 0.0714285714285714 y_48 + 0.1111111111111111 y_49
   + 0.0833333333333333 y_50 + 0.1111111111111111 y_51
   + 0.0909090909090909 y_52 + 0.0909090909090909 y_53
   + 0.0833333333333333 y_54 + 0.0909090909090909 y_55
   + 0.0714285714285714 y_56 + 0.0909090909090909 y_57
   + 0.0909090909090909 y_58 + 0.1111111111111111 y_59 + 0.125 y_60
   + 0.1 y_61 + 0.125 y_62 + 0.1 y_63 + 0.1 y_64 + 0.25 y_65 + 0.1 y_66
   + 0.1666666666666667 y_67 + 0.0909090909090909 y_68 + 0.125 y_69
   + 0.1 y_70 + y_71 + 0.1 y_72 + 0.125 y_73 + 0.125 y_74 + 0.2 y_75
   + 0.1111111111111111 y_76 + 0.1666666666666667 y_77
   + 0.1111111111111111 y_78 + 0.0833333333333333 y_79
   + 0.0714285714285714 y_80 + 0.1 y_81 + 0.1111111111111111 y_82
   + 0.1111111111111111 y_83 + 0.25 y_84 + 0.0909090909090909 y_85
   + 0.1 y_86 + 0.0769230769230769 y_87 + 0.5 y_88 + 0.25 y_89
   + 0.1428571428571428 y_90 + 0.1111111111111111 y_91
   + 0.0833333333333333 y_92 + 0.1 y_93 + 0.0833333333333333 y_94
   + 0.125 y_95 + 0.2 y_96 + 0.1 y_97 + 0.125 y_98
   + 0.1666666666666667 y_99 + 0.0909090909090909 y_100
   + 0.1428571428571428 y_101 + 0.0833333333333333 y_102 + 0.125 y_103
   + 0.25 y_104 + 0.1428571428571428 y_105 + 0.3333333333333333 y_106
   + 0.1428571428571428 y_107 + 0.125 y_108 + 0.0769230769230769 y_109
   + 0.1428571428571428 y_110 + 0.1666666666666667 y_111
   + 0.1666666666666667 y_112 + 0.0769230769230769 y_113 + 0.2 y_114
   + 0.1666666666666667 y_115 + 0.1666666666666667 y_116
   + 0.0833333333333333 y_117 + 0.0769230769230769 y_118 + 0.2 y_119
   + 0.1111111111111111 y_120 + 0.125 y_121 + 0.1111111111111111 y_122
   + 0.1111111111111111 y_123 + 0.1111111111111111 y_124
   + 0.1111111111111111 y_125 + 0.0714285714285714 y_126
   + 0.0909090909090909 y_127 + 0.0714285714285714 y_128
   + 0.1428571428571428 y_129 + 0.25 y_130 + 0.0769230769230769 y_131
   + 0.0909090909090909 y_132 + 0.0909090909090909 y_133
   + 0.1666666666666667 y_134 + 0.125 y_135 + 0.1111111111111111 y_136
   + 0.0909090909090909 y_137 + 0.25 y_138 + 0.125 y_139
   + 0.0909090909090909 y_140 + 0.2 y_141 + 0.25 y_142
   + 0.0909090909090909 y_143 + 0.1428571428571428 y_144 + 0.1 y_145
   + 0.1428571428571428 y_146 + 0.1666666666666667 y_147 + 0.2 y_148
   + 0.0909090909090909 y_149 + 0.3333333333333333 y_150
   + 0.1666666666666667 y_151 + 0.2 y_152 + 0.1 y_153
   + 0.0909090909090909 y_154 + 0.1 y_155 + 0.1111111111111111 y_156
   + 0.1 y_157 + 0.2 y_158 + 0.25 y_159 + 0.0909090909090909 y_160
   + 0.25 y_161 + 0.2 y_162 + 0.125 y_163 + 0.1111111111111111 y_164
   + 0.125 y_165 + 0.1111111111111111 y_166 + 0.0833333333333333 y_167
   + 0.1428571428571428 y_168 + 0.1666666666666667 y_169
   + 0.1666666666666667 y_170 + 0.0909090909090909 y_171
   + 0.1111111111111111 y_172 + 0.0909090909090909 y_173 + 0.125 y_174
   + 0.3333333333333333 y_175 + 0.1 y_176 + 0.0909090909090909 y_177
   + 0.25 y_178 + 0.0833333333333333 y_179 + 0.0833333333333333 y_180
   + 0.125 y_181 + 0.1666666666666667 y_182 + 0.125 y_183
   + 0.1666666666666667 y_184 + 0.0909090909090909 y_185
   + 0.1111111111111111 y_186 + 0.125 y_187 + 0.1111111111111111 y_188
   + 0.0833333333333333 y_189 + 0.0833333333333333 y_190
   + 0.1666666666666667 y_191 + 0.2 y_192 + 0.0833333333333333 y_193
   + 0.1666666666666667 y_194 + 0.1428571428571428 y_195
   + 0.1111111111111111 y_196 + 0.1111111111111111 y_197 + 0.125 y_198
   + 0.0909090909090909 y_199 - 26.78003940503938 Constant
Subject To
 c_0: y_148 = 1
 c_1_0: y_0 + y_23 + y_52 + y_57 + y_79 + y_185 >= 1
 c_1_1: y_1 + y_63 + y_81 + y_85 + y_179 >= 1
 c_1_2: y_2 + y_17 + y_21 + y_35 + y_44 + y_60 + y_69 + y_170 + y_183
   + y_194 >= 1
 c_1_3: y_3 + y_18 + y_24 + y_42 + y_73 + y_125 >= 1
 c_1_4: y_4 + y_66 + y_93 + y_157 + y_179 + y_199 >= 1
 c_1_5: y_5 + y_96 + y_104 + y_130 + y_141 + y_170 + y_194 >= 1
 c_1_6: y_6 + y_16 + y_43 + y_46 + y_50 + y_58 + y_100 + y_131 + y_177
   + y_190 + y_193 >= 1
 c_1_7: y_7 + y_65 + y_75 + y_104 + y_119 + y_148 >= 1
 c_1_8: y_8 + y_11 + y_74 + y_135 + y_136 + y_165 + y_181 + y_188 >= 1
 c_1_9: y_9 + y_10 + y_29 + y_70 + y_73 + y_76 + y_83 + y_124 + y_155
   + y_163 + y_166 >= 1
 c_1_10: y_9 + y_10 + y_26 + y_61 + y_64 + y_76 + y_83 + y_155 + y_163
   + y_196 >= 1
 c_1_11: y_8 + y_11 + y_74 + y_135 + y_136 + y_165 + y_181 + y_188 >= 1
 c_1_12: y_12 + y_67 + y_110 + y_174 >= 1
 c_1_13: y_13 + y_31 >= 1
 c_1_14: y_14 + y_20 + y_41 + y_118 >= 1
 c_1_15: y_15 + y_30 + y_43 + y_46 + y_56 + y_131 + y_190 + y_193 >= 1
 c_1_16: y_6 + y_16 + y_46 + y_50 + y_51 + y_58 + y_82 + y_91 + y_100
   + y_156 + y_177 >= 1
 c_1_17: y_2 + y_17 + y_21 + y_35 + y_44 + y_60 + y_69 + y_96 + y_120
   + y_183 + y_194 >= 1
 c_1_18: y_3 + y_18 + y_42 + y_125 >= 1
 c_1_19: y_19 + y_23 + y_28 + y_47 + y_48 + y_54 + y_87 + y_92 + y_128
   + y_137 + y_149 >= 1
 c_1_20: y_14 + y_20 + y_41 + y_109 + y_113 + y_118 + y_126 >= 1
 c_1_21: y_2 + y_17 + y_21 + y_35 + y_44 + y_51 + y_60 + y_69 + y_82 + y_91
   + y_156 + y_183 >= 1
 c_1_22: y_22 + y_36 + y_80 + y_180 >= 1
 c_1_23: y_0 + y_19 + y_23 + y_47 + y_79 + y_137 + y_149 >= 1
 c_1_24: y_3 + y_24 + y_29 + y_125 + y_166 >= 1
 c_1_25: y_25 + y_66 + y_93 + y_145 + y_157 + y_197 >= 1
 c_1_26: y_10 + y_26 + y_61 + y_64 + y_70 + y_76 + y_83 + y_94 + y_117
   + y_155 + y_173 + y_176 >= 1
 c_1_27: y_27 + y_55 + y_78 + y_86 + y_127 + y_133 + y_143 + y_153 + y_171
   >= 1
 c_1_28: y_19 + y_28 + y_37 + y_38 + y_47 + y_54 + y_87 + y_92 + y_132
   >= 1
 c_1_29: y_9 + y_24 + y_29 + y_70 + y_73 + y_76 + y_83 + y_124 + y_155
   + y_166 + y_176 >= 1
 c_1_30: y_15 + y_30 + y_43 + y_46 + y_50 + y_56 + y_80 + y_131 + y_190
   >= 1
 c_1_31: y_13 + y_31 + y_49 >= 1
 c_1_32: y_32 + y_108 + y_130 + y_134 + y_141 + y_170 + y_191 >= 1
 c_1_33: y_33 + y_34 + y_77 + y_138 + y_147 + y_162 + y_184 >= 1
 c_1_34: y_33 + y_34 + y_105 + y_138 + y_139 + y_147 + y_162 >= 1
 c_1_35: y_2 + y_17 + y_21 + y_35 + y_44 + y_51 + y_60 + y_69 + y_120
   + y_156 + y_183 >= 1
 c_1_36: y_22 + y_36 + y_180 >= 1
 c_1_37: y_28 + y_37 + y_38 + y_92 + y_132 + y_145 >= 1
 c_1_38: y_28 + y_37 + y_38 + y_54 + y_87 + y_92 + y_132 >= 1
 c_1_39: y_39 + y_88 + y_112 + y_116 + y_142 + y_159 + y_192 >= 1
 c_1_40: y_40 + y_105 + y_107 + y_111 + y_138 + y_144 + y_147 + y_158
   + y_168 >= 1
 c_1_41: y_14 + y_20 + y_41 + y_55 + y_109 + y_113 + y_118 + y_167 >= 1
 c_1_42: y_3 + y_18 + y_42 + y_73 + y_125 + y_184 >= 1
 c_1_43: y_6 + y_15 + y_30 + y_43 + y_50 + y_56 + y_80 + y_131 + y_180
   >= 1
 c_1_44: y_2 + y_17 + y_21 + y_35 + y_44 + y_51 + y_60 + y_69 + y_82 + y_91
   + y_170 + y_183 >= 1
 c_1_45: y_45 + y_59 + y_62 + y_95 + y_98 + y_103 + y_146 + y_154 >= 1
 c_1_46: y_6 + y_15 + y_16 + y_30 + y_46 + y_50 + y_58 + y_100 + y_131
   + y_140 + y_177 + y_189 + y_190 + y_193 >= 1
 c_1_47: y_19 + y_23 + y_28 + y_47 + y_48 + y_54 + y_79 + y_87 + y_128
   + y_137 >= 1
 c_1_48: y_19 + y_47 + y_48 + y_128 >= 1
 c_1_49: y_31 + y_49 + y_105 + y_139 + y_168 + y_198 >= 1
 c_1_50: y_6 + y_16 + y_30 + y_43 + y_46 + y_50 + y_58 + y_80 + y_131
   + y_177 + y_180 + y_190 >= 1
 c_1_51: y_16 + y_21 + y_35 + y_44 + y_51 + y_69 + y_82 + y_91 + y_156
   + y_177 + y_183 >= 1
 c_1_52: y_0 + y_52 + y_53 + y_57 + y_72 + y_136 + y_185 + y_188 >= 1
 c_1_53: y_52 + y_53 + y_57 + y_72 + y_185 >= 1
 c_1_54: y_19 + y_28 + y_38 + y_47 + y_54 + y_87 + y_92 + y_132 + y_137
   >= 1
 c_1_55: y_27 + y_41 + y_55 + y_113 + y_127 + y_167 >= 1
 c_1_56: y_15 + y_30 + y_43 + y_56 + y_80 + y_131 >= 1
 c_1_57: y_0 + y_52 + y_53 + y_57 + y_72 + y_136 + y_185 + y_188 >= 1
 c_1_58: y_6 + y_16 + y_46 + y_50 + y_58 + y_100 + y_140 + y_177 + y_190
   + y_193 >= 1
 c_1_59: y_45 + y_59 + y_62 + y_95 + y_98 + y_121 + y_154 >= 1
 c_1_60: y_2 + y_17 + y_21 + y_35 + y_44 + y_60 + y_69 + y_120 + y_156
   + y_183 + y_194 >= 1
 c_1_61: y_10 + y_26 + y_61 + y_64 + y_76 + y_94 + y_117 + y_155 + y_173
   + y_196 >= 1
 c_1_62: y_45 + y_59 + y_62 + y_90 + y_95 + y_98 + y_101 + y_103 + y_112
   + y_116 + y_146 >= 1
 c_1_63: y_1 + y_63 + y_81 + y_85 + y_120 + y_164 >= 1
 c_1_64: y_10 + y_26 + y_61 + y_64 + y_117 + y_196 >= 1
 c_1_65: y_7 + y_65 + y_75 + y_104 + y_119 + y_148 >= 1
 c_1_66: y_4 + y_25 + y_66 + y_93 + y_145 + y_157 + y_197 + y_199 >= 1
 c_1_67: y_12 + y_67 + y_110 + y_148 + y_174 + y_182 >= 1
 c_1_68: y_68 + y_102 + y_154 >= 1
 c_1_69: y_2 + y_17 + y_21 + y_35 + y_44 + y_51 + y_60 + y_69 + y_82 + y_91
   + y_120 + y_156 + y_183 >= 1
 c_1_70: y_9 + y_26 + y_29 + y_70 + y_76 + y_83 + y_124 + y_155 + y_166
   + y_176 >= 1
 c_1_71: y_71 + y_88 + y_106 >= 1
 c_1_72: y_52 + y_53 + y_57 + y_72 + y_181 + y_185 >= 1
 c_1_73: y_3 + y_9 + y_29 + y_42 + y_73 + y_124 + y_151 + y_166 >= 1
 c_1_74: y_8 + y_11 + y_74 + y_90 + y_101 + y_103 + y_115 + y_181 >= 1
 c_1_75: y_7 + y_65 + y_75 + y_96 + y_104 + y_119 + y_194 >= 1
 c_1_76: y_9 + y_10 + y_26 + y_29 + y_61 + y_70 + y_76 + y_83 + y_124
   + y_155 + y_163 + y_196 >= 1
 c_1_77: y_33 + y_77 + y_114 + y_151 + y_184 >= 1
 c_1_78: y_27 + y_78 + y_86 + y_153 + y_171 + y_187 >= 1
 c_1_79: y_0 + y_23 + y_47 + y_79 >= 1
 c_1_80: y_22 + y_30 + y_43 + y_50 + y_56 + y_80 + y_131 + y_180 >= 1
 c_1_81: y_1 + y_63 + y_81 + y_85 + y_164 + y_179 + y_199 >= 1
 c_1_82: y_16 + y_21 + y_44 + y_51 + y_69 + y_82 + y_91 + y_108 + y_172
   + y_183 + y_186 >= 1
 c_1_83: y_9 + y_10 + y_26 + y_29 + y_70 + y_76 + y_83 + y_124 + y_155
   + y_163 + y_166 + y_176 >= 1
 c_1_84: y_84 + y_89 + y_130 + y_138 + y_141 + y_161 + y_169 + y_175
   + y_178 >= 1
 c_1_85: y_1 + y_63 + y_81 + y_85 + y_164 + y_179 >= 1
 c_1_86: y_27 + y_78 + y_86 + y_127 + y_133 + y_143 + y_153 + y_171 >= 1
 c_1_87: y_19 + y_28 + y_38 + y_47 + y_54 + y_87 + y_92 + y_132 >= 1
 c_1_88: y_39 + y_71 + y_88 + y_106 + y_142 + y_150 + y_159 >= 1
 c_1_89: y_84 + y_89 + y_130 + y_141 + y_175 >= 1
 c_1_90: y_62 + y_74 + y_90 + y_95 + y_101 + y_103 + y_112 + y_116 + y_146
   >= 1
 c_1_91: y_16 + y_21 + y_44 + y_51 + y_69 + y_82 + y_91 + y_108 + y_172
   + y_183 + y_186 >= 1
 c_1_92: y_19 + y_28 + y_37 + y_38 + y_54 + y_87 + y_92 + y_132 >= 1
 c_1_93: y_4 + y_25 + y_66 + y_93 + y_145 + y_157 + y_197 + y_199 >= 1
 c_1_94: y_26 + y_61 + y_94 + y_117 + y_155 + y_173 >= 1
 c_1_95: y_45 + y_59 + y_62 + y_90 + y_95 + y_98 + y_103 + y_121 + y_146
   >= 1
 c_1_96: y_5 + y_17 + y_75 + y_96 + y_104 + y_194 >= 1
 c_1_97: y_97 + y_133 + y_143 + y_171 + y_186 >= 1
 c_1_98: y_45 + y_59 + y_62 + y_95 + y_98 + y_121 + y_146 + y_195 + y_196
   >= 1
 c_1_99: y_99 + y_111 + y_130 + y_141 + y_169 + y_187 + y_191 >= 1
 c_1_100: y_6 + y_16 + y_46 + y_58 + y_100 + y_140 + y_177 + y_189 + y_190
   + y_193 >= 1
 c_1_101: y_62 + y_74 + y_90 + y_101 + y_103 + y_112 + y_116 + y_146
   + y_181 >= 1
 c_1_102: y_68 + y_102 >= 1
 c_1_103: y_45 + y_62 + y_74 + y_90 + y_95 + y_101 + y_103 + y_112 + y_116
   + y_146 + y_181 >= 1
 c_1_104: y_5 + y_7 + y_65 + y_75 + y_96 + y_104 + y_119 + y_194 >= 1
 c_1_105: y_34 + y_40 + y_49 + y_105 + y_107 + y_139 + y_147 + y_168
   + y_198 >= 1
 c_1_106: y_71 + y_88 + y_106 + y_142 >= 1
 c_1_107: y_40 + y_105 + y_107 + y_111 + y_122 + y_123 + y_144 + y_168
   >= 1
 c_1_108: y_32 + y_82 + y_91 + y_108 + y_134 + y_172 + y_186 >= 1
 c_1_109: y_20 + y_41 + y_109 + y_113 + y_118 + y_126 >= 1
 c_1_110: y_12 + y_67 + y_110 + y_148 + y_174 + y_182 >= 1
 c_1_111: y_40 + y_99 + y_107 + y_111 + y_144 + y_158 + y_169 + y_187
   + y_191 >= 1
 c_1_112: y_39 + y_62 + y_90 + y_101 + y_103 + y_112 + y_116 + y_146
   + y_192 >= 1
 c_1_113: y_20 + y_41 + y_55 + y_109 + y_113 + y_118 + y_167 >= 1
 c_1_114: y_77 + y_114 + y_151 + y_184 >= 1
 c_1_115: y_74 + y_115 + y_152 + y_159 >= 1
 c_1_116: y_39 + y_62 + y_90 + y_101 + y_103 + y_112 + y_116 + y_146
   + y_192 >= 1
 c_1_117: y_26 + y_61 + y_64 + y_94 + y_117 + y_173 >= 1
 c_1_118: y_14 + y_20 + y_41 + y_109 + y_113 + y_118 >= 1
 c_1_119: y_7 + y_65 + y_75 + y_104 + y_119 + y_148 >= 1
 c_1_120: y_17 + y_35 + y_60 + y_63 + y_69 + y_120 + y_156 >= 1
 c_1_121: y_59 + y_95 + y_98 + y_121 + y_146 + y_195 + y_196 >= 1
 c_1_122: y_107 + y_122 + y_123 >= 1
 c_1_123: y_107 + y_122 + y_123 >= 1
 c_1_124: y_9 + y_29 + y_70 + y_73 + y_76 + y_83 + y_124 + y_155 + y_166
   + y_176 >= 1
 c_1_125: y_3 + y_18 + y_24 + y_42 + y_125 >= 1
 c_1_126: y_20 + y_109 + y_126 >= 1
 c_1_127: y_27 + y_55 + y_86 + y_127 + y_153 + y_167 >= 1
 c_1_128: y_19 + y_47 + y_48 + y_128 >= 1
 c_1_129: y_129 + y_164 >= 1
 c_1_130: y_5 + y_32 + y_84 + y_89 + y_99 + y_130 + y_141 + y_191 >= 1
 c_1_131: y_6 + y_15 + y_30 + y_43 + y_46 + y_50 + y_56 + y_80 + y_131
   + y_190 >= 1
 c_1_132: y_28 + y_37 + y_38 + y_54 + y_87 + y_92 + y_132 >= 1
 c_1_133: y_27 + y_86 + y_97 + y_133 + y_143 + y_153 + y_171 >= 1
 c_1_134: y_32 + y_108 + y_134 + y_141 + y_170 + y_191 >= 1
 c_1_135: y_8 + y_11 + y_135 + y_136 + y_165 + y_188 >= 1
 c_1_136: y_8 + y_11 + y_52 + y_57 + y_135 + y_136 + y_165 + y_185 + y_188
   >= 1
 c_1_137: y_19 + y_23 + y_47 + y_54 + y_137 + y_149 >= 1
 c_1_138: y_33 + y_34 + y_40 + y_84 + y_138 + y_147 + y_158 + y_161 + y_162
   + y_175 + y_178 >= 1
 c_1_139: y_34 + y_49 + y_105 + y_139 + y_198 >= 1
 c_1_140: y_46 + y_58 + y_100 + y_140 + y_189 + y_193 >= 1
 c_1_141: y_5 + y_32 + y_84 + y_89 + y_99 + y_130 + y_134 + y_141 + y_170
   + y_191 >= 1
 c_1_142: y_39 + y_88 + y_106 + y_142 + y_192 >= 1
 c_1_143: y_27 + y_86 + y_97 + y_133 + y_143 + y_153 + y_171 >= 1
 c_1_144: y_40 + y_107 + y_111 + y_144 + y_158 + y_168 + y_169 + y_187
   >= 1
 c_1_145: y_25 + y_37 + y_66 + y_93 + y_145 + y_197 >= 1
 c_1_146: y_45 + y_62 + y_90 + y_95 + y_98 + y_101 + y_103 + y_112 + y_116
   + y_121 + y_146 + y_195 >= 1
 c_1_147: y_33 + y_34 + y_40 + y_105 + y_138 + y_147 + y_158 + y_161
   + y_162 + y_168 >= 1
 c_1_148: y_7 + y_65 + y_67 + y_110 + y_119 + y_148 + y_150 + y_152 + y_182
   >= 1
 c_1_149: y_19 + y_23 + y_137 + y_149 >= 1
 c_1_150: y_88 + y_148 + y_150 + y_152 + y_159 >= 1
 c_1_151: y_73 + y_77 + y_114 + y_151 + y_184 >= 1
 c_1_152: y_115 + y_148 + y_150 + y_152 + y_159 + y_182 >= 1
 c_1_153: y_27 + y_78 + y_86 + y_127 + y_133 + y_143 + y_153 + y_171 >= 1
 c_1_154: y_45 + y_59 + y_68 + y_154 >= 1
 c_1_155: y_9 + y_10 + y_26 + y_29 + y_61 + y_70 + y_76 + y_83 + y_94
   + y_124 + y_155 + y_166 + y_173 + y_176 >= 1
 c_1_156: y_16 + y_21 + y_35 + y_51 + y_60 + y_69 + y_120 + y_156 + y_177
   + y_183 >= 1
 c_1_157: y_4 + y_25 + y_66 + y_93 + y_157 + y_197 + y_199 >= 1
 c_1_158: y_40 + y_111 + y_138 + y_144 + y_147 + y_158 + y_161 + y_162
   + y_168 + y_169 + y_178 >= 1
 c_1_159: y_39 + y_88 + y_115 + y_150 + y_152 + y_159 >= 1
 c_1_160: y_160 >= 1
 c_1_161: y_84 + y_138 + y_147 + y_158 + y_161 + y_162 + y_175 + y_178
   >= 1
 c_1_162: y_33 + y_34 + y_138 + y_147 + y_158 + y_161 + y_162 + y_178 >= 1
 c_1_163: y_9 + y_10 + y_76 + y_83 + y_163 + y_195 + y_196 >= 1
 c_1_164: y_63 + y_81 + y_85 + y_129 + y_164 >= 1
 c_1_165: y_8 + y_11 + y_135 + y_136 + y_165 + y_188 >= 1
 c_1_166: y_9 + y_24 + y_29 + y_70 + y_73 + y_83 + y_124 + y_155 + y_166
   + y_176 >= 1
 c_1_167: y_41 + y_55 + y_113 + y_127 + y_167 >= 1
 c_1_168: y_40 + y_49 + y_105 + y_107 + y_144 + y_147 + y_158 + y_168
   + y_198 >= 1
 c_1_169: y_84 + y_99 + y_111 + y_144 + y_158 + y_169 + y_187 + y_191 >= 1
 c_1_170: y_2 + y_5 + y_32 + y_44 + y_134 + y_141 + y_170 >= 1
 c_1_171: y_27 + y_78 + y_86 + y_97 + y_133 + y_143 + y_153 + y_171 >= 1
 c_1_172: y_82 + y_91 + y_108 + y_172 + y_186 >= 1
 c_1_173: y_26 + y_61 + y_94 + y_117 + y_155 + y_173 >= 1
 c_1_174: y_12 + y_67 + y_110 + y_174 >= 1
 c_1_175: y_84 + y_89 + y_138 + y_161 + y_175 + y_178 >= 1
 c_1_176: y_26 + y_29 + y_70 + y_83 + y_124 + y_155 + y_166 + y_176 >= 1
 c_1_177: y_6 + y_16 + y_46 + y_50 + y_51 + y_58 + y_100 + y_156 + y_177
   + y_180 + y_190 >= 1
 c_1_178: y_84 + y_138 + y_158 + y_161 + y_162 + y_175 + y_178 >= 1
 c_1_179: y_1 + y_4 + y_81 + y_85 + y_179 + y_199 >= 1
 c_1_180: y_22 + y_36 + y_43 + y_50 + y_80 + y_177 + y_180 >= 1
 c_1_181: y_8 + y_11 + y_72 + y_74 + y_101 + y_103 + y_181 >= 1
 c_1_182: y_67 + y_110 + y_148 + y_152 + y_182 >= 1
 c_1_183: y_2 + y_17 + y_21 + y_35 + y_44 + y_51 + y_60 + y_69 + y_82
   + y_91 + y_156 + y_183 >= 1
 c_1_184: y_33 + y_42 + y_77 + y_114 + y_151 + y_184 >= 1
 c_1_185: y_0 + y_52 + y_53 + y_57 + y_72 + y_136 + y_185 >= 1
 c_1_186: y_82 + y_91 + y_97 + y_108 + y_172 + y_186 >= 1
 c_1_187: y_78 + y_99 + y_111 + y_144 + y_169 + y_187 + y_191 >= 1
 c_1_188: y_8 + y_11 + y_52 + y_57 + y_135 + y_136 + y_165 + y_188 >= 1
 c_1_189: y_46 + y_100 + y_140 + y_189 + y_190 + y_193 >= 1
 c_1_190: y_6 + y_15 + y_30 + y_46 + y_50 + y_58 + y_100 + y_131 + y_177
   + y_189 + y_190 + y_193 >= 1
 c_1_191: y_32 + y_99 + y_111 + y_130 + y_134 + y_141 + y_169 + y_187
   + y_191 >= 1
 c_1_192: y_39 + y_112 + y_116 + y_142 + y_192 + y_195 >= 1
 c_1_193: y_6 + y_15 + y_46 + y_58 + y_100 + y_140 + y_189 + y_190 + y_193
   >= 1
 c_1_194: y_2 + y_5 + y_17 + y_60 + y_75 + y_96 + y_104 + y_194 >= 1
 c_1_195: y_98 + y_121 + y_146 + y_163 + y_192 + y_195 >= 1
 c_1_196: y_10 + y_61 + y_64 + y_76 + y_98 + y_121 + y_163 + y_196 >= 1
 c_1_197: y_25 + y_66 + y_93 + y_145 + y_157 + y_197 >= 1
 c_1_198: y_49 + y_105 + y_139 + y_168 + y_198 >= 1
 c_1_199: y_4 + y_66 + y_81 + y_93 + y_157 + y_179 + y_199 >= 1
Bounds
 Constant = 1
Binaries
 y_0 y_1 y_2 y_3 y_4 y_5 y_6 y_7 y_8 y_9 y_10 y_11 y_12 y_13 y_14 y_15 y_16
 y_17 y_18 y_19 y_20 y_21 y_22 y_23 y_24 y_25 y_26 y_27 y_28 y_29 y_30 y_31
 y_32 y_33 y_34 y_35 y_36 y_37 y_38 y_39 y_40 y_41 y_42 y_43 y_44 y_45 y_46
 y_47 y_48 y_49 y_50 y_51 y_52 y_53 y_54 y_55 y_56 y_57 y_58 y_59 y_60 y_61
 y_62 y_63 y_64 y_65 y_66 y_67 y_68 y_69 y_70 y_71 y_72 y_73 y_74 y_75 y_76
 y_77 y_78 y_79 y_80 y_81 y_82 y_83 y_84 y_85 y_86 y_87 y_88 y_89 y_90 y_91
 y_92 y_93 y_94 y_95 y_96 y_97 y_98 y_99 y_100 y_101 y_102 y_103 y_104
 y_105 y_106 y_107 y_108 y_109 y_110 y_111 y_112 y_113 y_114 y_115 y_116
 y_117 y_118 y_119 y_120 y_121 y_122 y_123 y_124 y_125 y_126 y_127 y_128
 y_129 y_130 y_131 y_132 y_133 y_134 y_135 y_136 y_137 y_138 y_139 y_140
 y_141 y_142 y_143 y_144 y_145 y_146 y_147 y_148 y_149 y_150 y_151 y_152
 y_153 y_154 y_155 y_156 y_157 y_158 y_159 y_160 y_161 y_162 y_163 y_164
 y_165 y_166 y_167 y_168 y_169 y_170 y_171 y_172 y_173 y_174 y_175 y_176
 y_177 y_178 y_179 y_180 y_181 y_182 y_183 y_184 y_185 y_186 y_187 y_188
 y_189 y_190 y_191 y_192 y_193 y_194 y_195 y_196 y_197 y_198 y_199
End
